NAME: TSP_results/ch130_2.tour
COMMENT: Tour length 6112, time 1188.6 seconds
TYPE: TOUR
DIMENSION: 130
TOUR_SECTION
1
6
102
10
14
67
96
13
23
47
40
37
22
93
44
42
51
60
120
53
49
58
72
91
99
73
74
75
52
9
57
56
65
103
77
81
87
12
95
79
116
24
15
29
89
94
110
98
68
63
70
97
26
7
88
69
64
86
124
129
61
109
76
11
5
45
16
128
105
62
112
117
39
71
41
130
50
2
118
80
46
20
35
54
17
31
34
27
19
100
43
104
107
127
48
25
32
113
36
84
119
111
123
101
82
92
38
106
4
21
33
18
8
108
114
3
83
30
59
121
78
90
125
85
66
28
115
126
122
55
-1
EOF
